%mem=6GB
%nprocshared=3
%chk=C:\Users\epktb\Desktop\hnc-cisd-ts
# freq=numer cisd(fc)/6-311++g** gfp 

HNC-HCN

0 1
 N              
 C                  1           B1     
 H                  2           B2     1           A1    

B1 1.0
B2 1.1
A1 80.0