%mem=8GB
%nprocshared=6
%chk=n2-gasopt
# opt freq=raman MP2(full)/6-311G**

Title Card Required

0 1
 N              
 N                  1            B1

   B1             1.09200000

 1 2 3.0
 2

