%mem=8GB
%nprocshared=6
%oldchk=n2-gasopt
%chk=n2-solopt
# opt freq=raman scrf=(smd,solvent=water) MP2(full)/6-311G** geom=check

Title Card Required

0 1

