%mem=8GB
%nprocshared=6
%oldchk=n2-gasopt
%chk=sp-n2
#scrf=(smd,solvent=water) MP2(full)/6-311G** geom=check

Title Card Required

0 1

