%rwf=/home/epktb/scratch/dzp-HNC/
%int=/home/epktb/scratch/dzp-HNC/
%d2e=/home/epktb/scratch/dzp-HNC/
%nosave
%mem=6GB
%nprocshared=3
%chk=/home/epktb/dzp-HNC
# opt=(tight) RHF/Gen gfp 

HNC-HCN

0 1
 N              
 C                  1           B1     
 H                  2           B2     1           A1    

B1 1.0
B2 2.3
A1 180.0

H 0
S    3 1.00
     0.1924060000D+02              0.3282800000D-01
     0.2899200000D+01              0.2312080000D+00
     0.6534000000D+00              0.8172380000D+00
S    1 1.00
     0.1776000000D+00              1.0000000000D+00
S    1 1.00
     0.4827300000D-01              1.0000000000D+00
P    1 1.00
     1.0000000000D+00              1.0000000000D+00
****
C 0
S    6 1.00
     0.4232610000D+04              0.2029000000D-02
     0.6348820000D+03              0.1553500000D-01
     0.1460970000D+03              0.7541100000D-01
     0.4249740000D+02              0.2571210000D+00
     0.1418920000D+02              0.5965550000D+00
     0.1966600000D+01              0.2425170000D+00
S    1 1.00
     0.5147700000D+01              1.0000000000D+00
S    1 1.00
     0.4962000000D+00              1.0000000000D+00
S    1 1.00
     0.1533000000D+00              1.0000000000D+00
P    4 1.00
     0.1815570000D+02              0.1853400000D-01
     0.3986400000D+01              0.1154420000D+00
     0.1142900000D+01              0.3862060000D+00
     0.3594000000D+00              0.6400890000D+00
P    1 1.00
     0.1146000000D+00              1.0000000000D+00
P    1 1.00
     0.3400000000D-01              1.0000000000D+00
D    1 1.00
      0.750000000D+00              1.0000000000D+00
****
N 0
S    6 1.00
     0.5909440000D+04              0.2004000000D-02
     0.8874510000D+03              0.1531000000D-01
     0.2047490000D+03              0.7429300000D-01
     0.5983760000D+02              0.2533640000D+00
     0.1999810000D+02              0.6005760000D+00
     0.2686000000D+01              0.2451110000D+00
S    1 1.00
     0.7192700000D+01              1.0000000000D+00
S    1 1.00
     0.7000000000D+00              1.0000000000D+00
S    1 1.00
     0.2133000000D+00              1.0000000000D+00
P    4 1.00
     0.2678600000D+02              0.1825700000D-01
     0.5956400000D+01              0.1164070000D+00
     0.1707400000D+01              0.3901110000D+00
     0.5314000000D+00              0.6372210000D+00
P    1 1.00
     0.1654000000D+00              1.0000000000D+00
P    1 1.00
     0.4800000000D-01              1.0000000000D+00
D    1 1.00
     0.8000000000D+00              1.0000000000D+00
****

