%nprocshared=8
%mem=6GB
%oldchk=c2h4-c2f4-wb97xd-pople.chk
%chk=c2h4-c2f4-wb97xd-pople-td
# td=(singlet,nstates=50) wb97xd/6-311++g** geom=check gfp

Title

0 1

