%nprocshared=8
%mem=6GB
%oldchk=c2h4-c2f4-camb3lyp-pople.chk
%chk=c2h4-c2f4-camb3lyp-pople-td
# td=(singlet,nstates=50) cam-b3lyp/6-311++g** geom=check gfp

Title

0 1

