%nprocshared=8
%mem=6GB
%oldchk=c2h4-c2f4-wb97xd-aug.chk
%chk=c2h4-c2f4-wb97xd-aug-td
# td=(singlet,nstates=50) wb97xd/aug-cc-pvtz geom=check gfp

Title

0 1

