%nprocshared=8
%mem=60GB
%oldchk=c2h4-c2f4
%chk=c2h4f4-mo
# td=(singlet,nstates=50) b3lyp/aug-cc-pvtz geom=check gfp

Title

0 1

