%nprocshared=8
%mem=6GB
%oldchk=c2h4-c2f4-camb3lyp-aug.chk
%chk=c2h4-c2f4-camb3lyp-aug-td
# td=(singlet,nstates=50) cam-b3lyp/aug-cc-pvtz geom=check gfp

Title

0 1

