%chk=A02_mod_FF
# opt=loose freq rhf/6-31g(d) geom=connectivity

Title Card Required

0 1
 O              
 O                  1    3.26275980
 O                  2    2.23298546    1   73.06443357
 N                  1    2.66020583    2  108.42055787    3 -170.21521616    0
 N                  1    2.27664200    4   94.74245063    2   57.31796702    0
 C                  4    1.50642403    1   63.94292758    5  -19.80252310    0
 C                  6    1.54719951    4  111.82817420    1 -111.78660200    0
 C                  7    1.51344390    6  115.42211234    4   66.74262502    0
 C                  8    1.40695221    7  120.93280362    6   87.56285531    0
 C                  9    1.38880573    8  121.28770166    7 -178.80715609    0
 C                 10    1.37322181    9  119.53077886    8   -0.51563099    0
 C                 11    1.38527533   10  120.27250740    9   -0.53635812    0
 C                 12    1.38418987   11  120.58095826   10    1.35114506    0
 C                  1    1.25666285    5   29.80577391    6    1.39801475    0
 C                  5    1.46333783    1   93.23193891   14 -177.30420628    0
 C                 15    1.51241386    5  113.04849146    1  -71.93801495    0
 C                 16    1.51316826   15  117.95248965    5  -69.25047366    0
 C                 17    1.40196505   16  118.57475562   15  165.93400338    0
 C                 18    1.39227272   17  121.41659416   16  173.07399571    0
 C                 19    1.38073731   18  120.35271265   17    0.62194052    0
 C                 20    1.38092443   19  118.32243060   18    1.64413307    0
 C                 21    1.38073090   20  121.71144557   19   -1.34374638    0
 C                  2    1.24908658    1   60.16828899   14  104.93801910    0
 H                  4    0.86825964    1   96.82129382   14   94.47257472    0
 H                  4    0.86914970    1  153.37747896   14  -95.81808115    0
 H                  4    0.86920254    1   55.02260622   14 -156.41713066    0
 H                  5    0.86936197    1  147.38401835   14    4.95745353    0
 H                  6    0.95876067    4  108.90514522    1  127.89261717    0
 H                  7    1.07000000    6  108.22376086    4 -171.85578624    0
 H                  9    0.96077897    8  119.28837718    7    0.95722513    0
 H                 10    0.95808624    9  120.26279644    8  179.65521105    0
 H                 11    0.95898329   10  119.78817019    9  179.50552043    0
 H                 12    0.95786468   11  119.81231343   10 -178.70936694    0
 H                 13    0.95824651   12  119.61753475   11  179.09312913    0
 H                 15    0.95861356    5  106.62348638    1  171.72917087    0
 H                 16    0.95889619   15  107.82282678    5  168.55106587    0
 H                 16    0.95746489   15  107.82653285    5   53.01469324    0
 H                 18    0.95890693   17  119.32764649   16   -6.95730257    0
 H                 19    0.95764401   18  120.01017856   17 -179.30328751    0
 H                 20    0.95862280   19  120.78478272   18 -178.32804710    0
 H                 21    0.95909638   20  119.13123199   19  178.62488449    0
 H                 22    0.95774558   21  119.53920529   20  178.84947509    0
 O                  4    5.96180218    1   41.30573135   14   95.21368488    0
 H                 43    0.96000001    4  105.95701176    1  156.46365116    0
 H                  7    1.07000000    6  108.22376112    4  -54.65896383    0
 H                 43    0.96000001    4  135.54371758    1  -61.68332753    0

 1 14 2.0
 2 23 2.0
 3 23 2.0
 4 6 1.0 24 1.0 25 1.0 26 1.0
 5 14 1.5 15 1.0 27 1.0
 6 7 1.0 14 1.0 28 1.0
 7 8 1.0 29 1.0 45 1.0
 8 9 1.5 13 1.5
 9 10 1.5 30 1.0
 10 11 2.0 31 1.0
 11 12 2.0 32 1.0
 12 13 2.0 33 1.0
 13 34 1.0
 14
 15 16 1.0 23 1.0 35 1.0
 16 17 1.0 36 1.0 37 1.0
 17 18 1.5 22 1.5
 18 19 1.5 38 1.0
 19 20 2.0 39 1.0
 20 21 2.0 40 1.0
 21 22 2.0 41 1.0
 22 42 1.0
 23
 24
 25
 26
 27
 28
 29
 30
 31
 32
 33
 34
 35
 36
 37
 38
 39
 40
 41
 42
 43 44 1.0 46 1.0
 44
 45
 46

