%nprocshared=2
%mem=256MW
%chk=C:\Users\maxb2\Desktop\A02\A02_FF.chk
# opt freq rhf/6-31g*

Title Card Required

0 1
 O                  4.28583344    5.24097018    3.30783966
 O                  5.53639046    2.24076212    3.03608925
 O                  6.42067505    3.15030196    4.87589398
 N                  2.31852019    5.49418841    1.53519921
 N                  5.86746989    4.70927453    1.75902570
 C                  3.71876802    5.58729255    0.98752138
 C                  4.04719592    7.01412404    0.48740805
 C                  4.11709984    8.07876786    1.56079494
 C                  5.31631364    8.33135983    2.25187965
 C                  5.38260184    9.28953927    3.25501443
 C                  4.26052340   10.01391458    3.57432388
 C                  3.07336200    9.79889828    2.89358638
 C                  2.99381616    8.83445623    1.90388664
 C                  4.64981592    5.14786603    2.10865248
 C                  6.82045316    4.24813762    2.76924015
 C                  7.41945744    5.37749509    3.57741171
 C                  8.37400752    6.32106178    2.87870274
 C                  8.70303804    7.52974565    3.50824878
 C                  9.68048768    8.37519810    2.99034369
 C                 10.34457492    8.04327973    1.82618998
 C                  9.98902912    6.87634660    1.17903735
 C                  9.01640044    6.03506922    1.68169392
 C                  6.18649692    3.13339291    3.61880055
 H                  2.06578136    4.66355747    1.54227888
 H                  1.77772900    5.95574282    1.03526559
 H                  2.30321364    5.80961524    2.34500454
 H                  6.09610392    4.69695806    0.92035710
 H                  3.80735316    4.97460047    0.25541271
 H                  4.99118049    6.98343659   -0.01543527
 H                  6.10333536    7.82826343    2.02696398
 H                  6.20578076    9.44610454    3.71954970
 H                  4.30029632   10.67148871    4.27121937
 H                  2.29959792   10.32078251    3.10906431
 H                  2.16220056    8.68832864    1.45078776
 H                  7.54841812    3.84315546    2.29490226
 H                  7.88347484    4.99130076    4.32241083
 H                  6.69872392    5.89937932    3.93085062
 H                  8.24504684    7.78025008    4.31260821
 H                  9.89622564    9.19142504    3.44235339
 H                 11.03517744    8.60900224    1.47692808
 H                 10.42894172    6.64463000    0.35888481
 H                  8.78258388    5.24180519    1.19864259
 O                  2.77205200    2.54679504    1.43428668
 H                  2.09774383    1.87261843    1.54561686
 H                  3.29796647    7.30131861   -0.22045811
 H                  3.64104944    2.14427162    1.50075740
 
