%mem=6GB
%nprocshared=6
%oldchk=h3c+-gasopt
%chk=h3c+-solopt
# opt freq=raman scrf=(smd,solvent=water) mp2(full)/6-311G** geom=check

Title Card Required

0 2

