%nprocshared=8
%mem=4gb
%chk=H3CN2optmp2
%oldchk=H3CN2opt.chk
# opt freq mp2(full)/6-311g** geom=check

ired

1 3
