%mem=8GB
%nprocshared=6
%chk=n2-cbs4m
# cbs-4m

Title Card Required

0 1
 N              
 N                  1            B1

   B1             1.09200000

 1 2 3.0
 2

