%nprocshared=8
%mem=4gb
%chk=N2opt
# opt freq mp2(full)/6-311g** 

Title Card Required

0 1
 N
 N                  1            B1

   B1             1.07000000

