%nprocshared=24
%mem=100GB
%oldchk=BT1
%chk=BTtd-wb97xd
# wb97xd/6-311++g** td=(singlet,nstates=70) geom=check density=current

BT1

0 1

