%rwf=/home/maxb2/scratch/HNCirc21/
%int=/home/maxb2/scratch/HNCirc21/
%d2e=/home/maxb2/scratch/HNCirc21/
%nosave
%mem=6GB
%nprocshared=3
%chk=HNCirc6311Gss
# irc=calcfc rhf/6-311g** gfp 

HNC-HCN

0 1
 N              
 C                  1           B1     
 H                  2           B2     1           A1    

 B1 1.16349908
 B2 1.15484412
 A1 78.78059145

