%mem=6GB
%nprocshared=2
%chk=Li+rhf
# opt freq rhf/6-311+g** geom=connectivity

Title Card Required

1 1
 Li             

 1

