%mem=6GB
%nprocshared=2
%chk=Li+b3lyp
# opt freq b3lyp/6-311+g** geom=connectivity

Title Card Required

1 1
 Li             

 1

