%mem=6GB
%nprocshared=2
%chk=Li+mp2
# opt freq mp2(full)/6-311+g** geom=connectivity

Title Card Required

1 1
 Li             

 1

