%chk=C:\Users\epktb\Desktop\A08\AAT-3base.chk
# hf/3-21g geom=connectivity

Title Card Required

0 1
 O(PDBName=O4P,ResName=DA,ResNum=6_A)              
 C(PDBName=C1P,ResName=DA,ResNum=6_A)                  1            B1
 N(PDBName=N9,ResName=DA,ResNum=6_A)                   2            B2    1            A1
 C(PDBName=C8,ResName=DA,ResNum=6_A)                   3            B3    2            A2    1            D1    0
 N(PDBName=N7,ResName=DA,ResNum=6_A)                   4            B4    3            A3    2            D2    0
 C(PDBName=C5,ResName=DA,ResNum=6_A)                   5            B5    4            A4    3            D3    0
 C(PDBName=C6,ResName=DA,ResNum=6_A)                   6            B6    5            A5    4            D4    0
 N(PDBName=N6,ResName=DA,ResNum=6_A)                   7            B7    6            A6    5            D5    0
 N(PDBName=N1,ResName=DA,ResNum=6_A)                   7            B8    6            A7    5            D6    0
 C(PDBName=C2,ResName=DA,ResNum=6_A)                   9            B9    7            A8    6            D7    0
 N(PDBName=N3,ResName=DA,ResNum=6_A)                  10           B10    9            A9    7            D8    0
 C(PDBName=C4,ResName=DA,ResNum=6_A)                  11           B11   10           A10    9            D9    0
 C(PDBName=C3P,ResName=DA,ResNum=6_A)                  1           B12    2           A11    3           D10    0
 C(PDBName=C2P,ResName=DA,ResNum=6_A)                 13           B13    1           A12    2           D11    0
 O(PDBName=O3P,ResName=DA,ResNum=6_A)                 13           B14    1           A13    2           D12    0
 P(PDBName=P,ResName=DT,ResNum=7_A)                   15           B15   13           A14    1           D13    0
 O(PDBName=OP1,ResName=DT,ResNum=7_A)                 16           B16   15           A15   13           D14    0
 O(PDBName=OP2,ResName=DT,ResNum=7_A)                 16           B17   15           A16   13           D15    0
 O(PDBName=O5P,ResName=DT,ResNum=7_A)                 16           B18   15           A17   13           D16    0
 C(PDBName=C5P,ResName=DT,ResNum=7_A)                 19           B19   16           A18   15           D17    0
 C(PDBName=C4P,ResName=DT,ResNum=7_A)                 20           B20   19           A19   16           D18    0
 O(PDBName=O4P,ResName=DT,ResNum=7_A)                 21           B21   20           A20   19           D19    0
 C(PDBName=C1P,ResName=DT,ResNum=7_A)                 22           B22   21           A21   20           D20    0
 N(PDBName=N1,ResName=DT,ResNum=7_A)                  23           B23   22           A22   21           D21    0
 C(PDBName=C6,ResName=DT,ResNum=7_A)                  24           B24   23           A23   22           D22    0
 C(PDBName=C5,ResName=DT,ResNum=7_A)                  25           B25   24           A24   23           D23    0
 C(PDBName=C5M,ResName=DT,ResNum=7_A)                 26           B26   25           A25   24           D24    0
 C(PDBName=C4,ResName=DT,ResNum=7_A)                  26           B27   25           A26   24           D25    0
 O(PDBName=O4,ResName=DT,ResNum=7_A)                  28           B28   26           A27   25           D26    0
 N(PDBName=N3,ResName=DT,ResNum=7_A)                  28           B29   26           A28   25           D27    0
 C(PDBName=C2,ResName=DT,ResNum=7_A)                  30           B30   28           A29   26           D28    0
 O(PDBName=O2,ResName=DT,ResNum=7_A)                  31           B31   30           A30   28           D29    0
 C(PDBName=C3P,ResName=DT,ResNum=7_A)                 21           B32   20           A31   19           D30    0
 C(PDBName=C2P,ResName=DT,ResNum=7_A)                 23           B33   22           A32   21           D31    0
 O(PDBName=O3P,ResName=DT,ResNum=7_A)                 33           B34   21           A33   20           D32    0
 P(PDBName=P,ResName=DT,ResNum=8_A)                   35           B35   33           A34   21           D33    0
 O(PDBName=OP1,ResName=DT,ResNum=8_A)                 36           B36   35           A35   33           D34    0
 O(PDBName=OP2,ResName=DT,ResNum=8_A)                 36           B37   35           A36   33           D35    0
 O(PDBName=O5P,ResName=DT,ResNum=8_A)                 36           B38   35           A37   33           D36    0
 C(PDBName=C5P,ResName=DT,ResNum=8_A)                 39           B39   36           A38   35           D37    0
 C(PDBName=C4P,ResName=DT,ResNum=8_A)                 40           B40   39           A39   36           D38    0
 O(PDBName=O4P,ResName=DT,ResNum=8_A)                 41           B41   40           A40   39           D39    0
 C(PDBName=C1P,ResName=DT,ResNum=8_A)                 42           B42   41           A41   40           D40    0
 N(PDBName=N1,ResName=DT,ResNum=8_A)                  43           B43   42           A42   41           D41    0
 C(PDBName=C6,ResName=DT,ResNum=8_A)                  44           B44   43           A43   42           D42    0
 C(PDBName=C5,ResName=DT,ResNum=8_A)                  45           B45   44           A44   43           D43    0
 C(PDBName=C5M,ResName=DT,ResNum=8_A)                 46           B46   45           A45   44           D44    0
 C(PDBName=C4,ResName=DT,ResNum=8_A)                  46           B47   45           A46   44           D45    0
 O(PDBName=O4,ResName=DT,ResNum=8_A)                  48           B48   46           A47   45           D46    0
 N(PDBName=N3,ResName=DT,ResNum=8_A)                  48           B49   46           A48   45           D47    0
 C(PDBName=C2,ResName=DT,ResNum=8_A)                  50           B50   48           A49   46           D48    0
 O(PDBName=O2,ResName=DT,ResNum=8_A)                  51           B51   50           A50   48           D49    0
 C(PDBName=C3P,ResName=DT,ResNum=8_A)                 41           B52   40           A51   39           D50    0
 C(PDBName=C2P,ResName=DT,ResNum=8_A)                 43           B53   42           A52   41           D51    0
 O(PDBName=O3P,ResName=DT,ResNum=8_A)                 53           B54   41           A53   40           D52    0
 O(PDBName=O5P,ResName=DA,ResNum=17_B)                50           B55   48           A54   46           D53    0
 C(PDBName=C5P,ResName=DA,ResNum=17_B)                56           B56   50           A55   48           D54    0
 C(PDBName=C4P,ResName=DA,ResNum=17_B)                57           B57   56           A56   50           D55    0
 O(PDBName=O4P,ResName=DA,ResNum=17_B)                58           B58   57           A57   56           D56    0
 C(PDBName=C1P,ResName=DA,ResNum=17_B)                59           B59   58           A58   57           D57    0
 N(PDBName=N9,ResName=DA,ResNum=17_B)                 60           B60   59           A59   58           D58    0
 C(PDBName=C8,ResName=DA,ResNum=17_B)                 61           B61   60           A60   59           D59    0
 N(PDBName=N7,ResName=DA,ResNum=17_B)                 62           B62   61           A61   60           D60    0
 C(PDBName=C5,ResName=DA,ResNum=17_B)                 63           B63   62           A62   61           D61    0
 C(PDBName=C6,ResName=DA,ResNum=17_B)                 64           B64   63           A63   62           D62    0
 N(PDBName=N6,ResName=DA,ResNum=17_B)                 65           B65   64           A64   63           D63    0
 N(PDBName=N1,ResName=DA,ResNum=17_B)                 65           B66   64           A65   63           D64    0
 C(PDBName=C2,ResName=DA,ResNum=17_B)                 67           B67   65           A66   64           D65    0
 N(PDBName=N3,ResName=DA,ResNum=17_B)                 68           B68   67           A67   65           D66    0
 C(PDBName=C4,ResName=DA,ResNum=17_B)                 69           B69   68           A68   67           D67    0
 C(PDBName=C3P,ResName=DA,ResNum=17_B)                58           B70   57           A69   56           D68    0
 C(PDBName=C2P,ResName=DA,ResNum=17_B)                60           B71   59           A70   58           D69    0
 O(PDBName=O3P,ResName=DA,ResNum=17_B)                71           B72   58           A71   57           D70    0
 P(PDBName=P,ResName=DA,ResNum=18_B)                  73           B73   71           A72   58           D71    0
 O(PDBName=OP1,ResName=DA,ResNum=18_B)                74           B74   73           A73   71           D72    0
 O(PDBName=OP2,ResName=DA,ResNum=18_B)                74           B75   73           A74   71           D73    0
 O(PDBName=O5P,ResName=DA,ResNum=18_B)                74           B76   73           A75   71           D74    0
 C(PDBName=C5P,ResName=DA,ResNum=18_B)                77           B77   74           A76   73           D75    0
 C(PDBName=C4P,ResName=DA,ResNum=18_B)                78           B78   77           A77   74           D76    0
 O(PDBName=O4P,ResName=DA,ResNum=18_B)                79           B79   78           A78   77           D77    0
 C(PDBName=C1P,ResName=DA,ResNum=18_B)                80           B80   79           A79   78           D78    0
 N(PDBName=N9,ResName=DA,ResNum=18_B)                 81           B81   80           A80   79           D79    0
 C(PDBName=C8,ResName=DA,ResNum=18_B)                 82           B82   81           A81   80           D80    0
 N(PDBName=N7,ResName=DA,ResNum=18_B)                 83           B83   82           A82   81           D81    0
 C(PDBName=C5,ResName=DA,ResNum=18_B)                 84           B84   83           A83   82           D82    0
 C(PDBName=C6,ResName=DA,ResNum=18_B)                 85           B85   84           A84   83           D83    0
 N(PDBName=N6,ResName=DA,ResNum=18_B)                 86           B86   85           A85   84           D84    0
 N(PDBName=N1,ResName=DA,ResNum=18_B)                 86           B87   85           A86   84           D85    0
 C(PDBName=C2,ResName=DA,ResNum=18_B)                 88           B88   86           A87   85           D86    0
 N(PDBName=N3,ResName=DA,ResNum=18_B)                 89           B89   88           A88   86           D87    0
 C(PDBName=C4,ResName=DA,ResNum=18_B)                 90           B90   89           A89   88           D88    0
 C(PDBName=C3P,ResName=DA,ResNum=18_B)                79           B91   78           A90   77           D89    0
 C(PDBName=C2P,ResName=DA,ResNum=18_B)                81           B92   80           A91   79           D90    0
 O(PDBName=O3P,ResName=DA,ResNum=18_B)                92           B93   79           A92   78           D91    0
 P(PDBName=P,ResName=DT,ResNum=19_B)                  94           B94   92           A93   79           D92    0
 O(PDBName=OP1,ResName=DT,ResNum=19_B)                95           B95   94           A94   92           D93    0
 O(PDBName=OP2,ResName=DT,ResNum=19_B)                95           B96   94           A95   92           D94    0
 O(PDBName=O5P,ResName=DT,ResNum=19_B)                95           B97   94           A96   92           D95    0
 C(PDBName=C5P,ResName=DT,ResNum=19_B)                98           B98   95           A97   94           D96    0
 C(PDBName=C4P,ResName=DT,ResNum=19_B)                99           B99   98           A98   95           D97    0
 O(PDBName=O4P,ResName=DT,ResNum=19_B)               100          B100   99           A99   98           D98    0
 C(PDBName=C1P,ResName=DT,ResNum=19_B)               101          B101  100          A100   99           D99    0
 N(PDBName=N1,ResName=DT,ResNum=19_B)                102          B102  101          A101  100          D100    0
 C(PDBName=C6,ResName=DT,ResNum=19_B)                103          B103  102          A102  101          D101    0
 C(PDBName=C5,ResName=DT,ResNum=19_B)                104          B104  103          A103  102          D102    0
 C(PDBName=C5M,ResName=DT,ResNum=19_B)               105          B105  104          A104  103          D103    0
 C(PDBName=C4,ResName=DT,ResNum=19_B)                105          B106  104          A105  103          D104    0
 O(PDBName=O4,ResName=DT,ResNum=19_B)                107          B107  105          A106  104          D105    0
 N(PDBName=N3,ResName=DT,ResNum=19_B)                107          B108  105          A107  104          D106    0
 C(PDBName=C2,ResName=DT,ResNum=19_B)                109          B109  107          A108  105          D107    0
 O(PDBName=O2,ResName=DT,ResNum=19_B)                110          B110  109          A109  107          D108    0
 C(PDBName=C3P,ResName=DT,ResNum=19_B)               100          B111   99          A110   98          D109    0
 C(PDBName=C2P,ResName=DT,ResNum=19_B)               102          B112  101          A111  100          D110    0
 O(PDBName=O3P,ResName=DT,ResNum=19_B)               112          B113  100          A112   99          D111    0
 H(PDBName=H1P,ResName=DA,ResNum=6_A)                  2          B114    1          A113    3          D112    0
 H(PDBName=H8,ResName=DA,ResNum=6_A)                   4          B115    3          A114    2          D113    0
 H(PDBName=H6,ResName=DA,ResNum=6_A)                   8          B116    7          A115    6          D114    0
 H(PDBName=H2,ResName=DA,ResNum=6_A)                  10          B117    9          A116    7          D115    0
 H(PDBName=H3P,ResName=DA,ResNum=6_A)                 13          B118    1          A117    2          D116    0
 H(PDBName=1H2P,ResName=DA,ResNum=6_A)                14          B119   13          A118    1          D117    0
 H(PDBName=2H2P,ResName=DA,ResNum=6_A)                14          B120   13          A119    1          D118    0
 H(PDBName=1H5P,ResName=DT,ResNum=7_A)                20          B121   19          A120   16          D119    0
 H(PDBName=2H5P,ResName=DT,ResNum=7_A)                20          B122   19          A121   16          D120    0
 H(PDBName=H4P,ResName=DT,ResNum=7_A)                 21          B123   20          A122   19          D121    0
 H(PDBName=H1P,ResName=DT,ResNum=7_A)                 23          B124   22          A123   21          D122    0
 H(PDBName=H6,ResName=DT,ResNum=7_A)                  25          B125   24          A124   23          D123    0
 H(PDBName=1H5M,ResName=DT,ResNum=7_A)                27          B126   26          A125   25          D124    0
 H(PDBName=2H5M,ResName=DT,ResNum=7_A)                27          B127   26          A126   25          D125    0
 H(PDBName=3H5M,ResName=DT,ResNum=7_A)                27          B128   26          A127   25          D126    0
 H(PDBName=H3P,ResName=DT,ResNum=7_A)                 33          B129   21          A128   20          D127    0
 H(PDBName=1H2P,ResName=DT,ResNum=7_A)                34          B130   23          A129   22          D128    0
 H(PDBName=2H2P,ResName=DT,ResNum=7_A)                34          B131   23          A130   22          D129    0
 H(PDBName=1H5P,ResName=DT,ResNum=8_A)                40          B132   39          A131   36          D130    0
 H(PDBName=2H5P,ResName=DT,ResNum=8_A)                40          B133   39          A132   36          D131    0
 H(PDBName=H4P,ResName=DT,ResNum=8_A)                 41          B134   40          A133   39          D132    0
 H(PDBName=H1P,ResName=DT,ResNum=8_A)                 43          B135   42          A134   41          D133    0
 H(PDBName=H6,ResName=DT,ResNum=8_A)                  45          B136   44          A135   43          D134    0
 H(PDBName=1H5M,ResName=DT,ResNum=8_A)                47          B137   46          A136   45          D135    0
 H(PDBName=2H5M,ResName=DT,ResNum=8_A)                47          B138   46          A137   45          D136    0
 H(PDBName=3H5M,ResName=DT,ResNum=8_A)                47          B139   46          A138   45          D137    0
 H(PDBName=H3P,ResName=DT,ResNum=8_A)                 53          B140   41          A139   40          D138    0
 H(PDBName=1H2P,ResName=DT,ResNum=8_A)                54          B141   43          A140   42          D139    0
 H(PDBName=2H2P,ResName=DT,ResNum=8_A)                54          B142   43          A141   42          D140    0
 H(PDBName=1H5P,ResName=DA,ResNum=17_B)               57          B143   56          A142   50          D141    0
 H(PDBName=2H5P,ResName=DA,ResNum=17_B)               57          B144   56          A143   50          D142    0
 H(PDBName=H4P,ResName=DA,ResNum=17_B)                58          B145   57          A144   56          D143    0
 H(PDBName=H1P,ResName=DA,ResNum=17_B)                60          B146   59          A145   58          D144    0
 H(PDBName=H8,ResName=DA,ResNum=17_B)                 62          B147   61          A146   60          D145    0
 H(PDBName=H6,ResName=DA,ResNum=17_B)                 66          B148   65          A147   64          D146    0
 H(PDBName=H2,ResName=DA,ResNum=17_B)                 68          B149   67          A148   65          D147    0
 H(PDBName=H3P,ResName=DA,ResNum=17_B)                71          B150   58          A149   57          D148    0
 H(PDBName=1H2P,ResName=DA,ResNum=17_B)               72          B151   60          A150   59          D149    0
 H(PDBName=2H2P,ResName=DA,ResNum=17_B)               72          B152   60          A151   59          D150    0
 H(PDBName=1H5P,ResName=DA,ResNum=18_B)               78          B153   77          A152   74          D151    0
 H(PDBName=2H5P,ResName=DA,ResNum=18_B)               78          B154   77          A153   74          D152    0
 H(PDBName=H4P,ResName=DA,ResNum=18_B)                79          B155   78          A154   77          D153    0
 H(PDBName=H1P,ResName=DA,ResNum=18_B)                81          B156   80          A155   79          D154    0
 H(PDBName=H8,ResName=DA,ResNum=18_B)                 83          B157   82          A156   81          D155    0
 H(PDBName=H6,ResName=DA,ResNum=18_B)                 87          B158   86          A157   85          D156    0
 H(PDBName=H2,ResName=DA,ResNum=18_B)                 89          B159   88          A158   86          D157    0
 H(PDBName=H3P,ResName=DA,ResNum=18_B)                92          B160   79          A159   78          D158    0
 H(PDBName=1H2P,ResName=DA,ResNum=18_B)               93          B161   81          A160   80          D159    0
 H(PDBName=2H2P,ResName=DA,ResNum=18_B)               93          B162   81          A161   80          D160    0
 H(PDBName=1H5P,ResName=DT,ResNum=19_B)               99          B163   98          A162   95          D161    0
 H(PDBName=2H5P,ResName=DT,ResNum=19_B)               99          B164   98          A163   95          D162    0
 H(PDBName=H4P,ResName=DT,ResNum=19_B)               100          B165   99          A164   98          D163    0
 H(PDBName=H1P,ResName=DT,ResNum=19_B)               102          B166  101          A165  100          D164    0
 H(PDBName=H6,ResName=DT,ResNum=19_B)                104          B167  103          A166  102          D165    0
 H(PDBName=1H5M,ResName=DT,ResNum=19_B)              106          B168  105          A167  104          D166    0
 H(PDBName=2H5M,ResName=DT,ResNum=19_B)              106          B169  105          A168  104          D167    0
 H(PDBName=3H5M,ResName=DT,ResNum=19_B)              106          B170  105          A169  104          D168    0
 H(PDBName=H3P,ResName=DT,ResNum=19_B)               112          B171  100          A170   99          D169    0
 H(PDBName=1H2P,ResName=DT,ResNum=19_B)              113          B172  102          A171  101          D170    0
 H(PDBName=2H2P,ResName=DT,ResNum=19_B)              113          B173  102          A172  101          D171    0
 H                                                    56          B174   50          A173   48          D172    0
 H                                                    55          B175   53          A174   41          D173    0
 H                                                   114          B176  112          A175  100          D174    0
 C                                                     1          B177    2          A176    3          D175    0
 H                                                   178          B178    1          A177    2          D176    0
 C                                                   178          B179    1          A178    2          D177    0
 H                                                   180          B180  178          A179    1          D178    0
 H                                                   180          B181  178          A180    1          D179    0
 O                                                   180          B182  178          A181    1          D180    0
 H                                                   183          B183  180          A182  178          D181    0
 H                                                    50          B184   48          A183   46          D182    0
 H                                                    30          B185   28          A184   26          D183    0
 H                                                   109          B186  107          A185  105          D184    0
 H                                                    66          B187   65          A186   64          D185    0
 H                                                    87          B188   86          A187   85          D186    0
 H                                                     8          B189    7          A188    6          D187    0
 H                                                    96          B190   95          A189   94          D188    0
 H                                                    75          B191   74          A190   73          D189    0
 H                                                    17          B192   16          A191   15          D190    0
 H                                                    37          B193   36          A192   35          D191    0

   B1             1.41618855
   B2             1.47027004
   B3             1.37245401
   B4             1.30754770
   B5             1.38906659
   B6             1.41950907
   B7             1.33835309
   B8             1.35260822
   B9             1.33960666
   B10            1.34596582
   B11            1.34956512
   B12            2.38378565
   B13            1.53036630
   B14            1.42501649
   B15            1.59993625
   B16            1.45712251
   B17            1.47352944
   B18            1.57448341
   B19            1.42915150
   B20            1.50698673
   B21            1.43897220
   B22            1.41825562
   B23            1.47016802
   B24            1.37773800
   B25            1.34475388
   B26            1.49391499
   B27            1.44948853
   B28            1.23012886
   B29            1.37149918
   B30            1.37390575
   B31            1.23213757
   B32            1.53085238
   B33            1.52287032
   B34            1.43137906
   B35            1.60427211
   B36            1.47987466
   B37            1.46474400
   B38            1.58650685
   B39            1.42632675
   B40            1.50330469
   B41            1.43862295
   B42            1.41736975
   B43            1.45220591
   B44            1.38346124
   B45            1.32997782
   B46            1.49777335
   B47            1.45923439
   B48            1.21631986
   B49            1.38444610
   B50            1.37726722
   B51            1.22967231
   B52            1.52566150
   B53            1.50977548
   B54            1.41509894
   B55           10.26828385
   B56            1.43403766
   B57            1.51141887
   B58            1.44304990
   B59            1.43192598
   B60            1.46509146
   B61            1.37034521
   B62            1.31131575
   B63            1.39080912
   B64            1.40619878
   B65            1.33192230
   B66            1.35408235
   B67            1.33420163
   B68            1.32974133
   B69            1.34993074
   B70            1.53090137
   B71            1.52035424
   B72            1.43105486
   B73            1.60922590
   B74            1.48692165
   B75            1.48077378
   B76            1.59343968
   B77            1.41171562
   B78            1.50557032
   B79            1.44012013
   B80            1.42231818
   B81            1.46743688
   B82            1.36633305
   B83            1.31405517
   B84            1.38358303
   B85            1.40571334
   B86            1.33803064
   B87            1.35090081
   B88            1.32798682
   B89            1.33397226
   B90            1.34401116
   B91            1.52705665
   B92            1.52639313
   B93            1.42559216
   B94            1.61136898
   B95            1.47136501
   B96            1.48201383
   B97            1.58779249
   B98            1.43013601
   B99            1.50692999
   B100           1.44801209
   B101           1.42264261
   B102           1.47666550
   B103           1.38064948
   B104           1.34191244
   B105           1.49896965
   B106           1.45380948
   B107           1.21820647
   B108           1.38571173
   B109           1.36396298
   B110           1.22640532
   B111           1.53010947
   B112           1.51722048
   B113           1.41825174
   B114           1.07000000
   B115           1.07000000
   B116           1.00000000
   B117           1.07000000
   B118           1.07000000
   B119           1.07000000
   B120           1.07000000
   B121           1.07000000
   B122           1.07000000
   B123           1.07000000
   B124           1.07000000
   B125           1.07000000
   B126           1.07000000
   B127           1.07000000
   B128           1.07000000
   B129           1.07000000
   B130           1.07000000
   B131           1.07000000
   B132           1.07000000
   B133           1.07000000
   B134           1.07000000
   B135           1.07000000
   B136           1.07000000
   B137           1.07000000
   B138           1.07000000
   B139           1.07000000
   B140           1.07000000
   B141           1.07000000
   B142           1.07000000
   B143           1.07000000
   B144           1.07000000
   B145           1.07000000
   B146           1.07000000
   B147           1.07000000
   B148           1.00000000
   B149           1.07000000
   B150           1.07000000
   B151           1.07000000
   B152           1.07000000
   B153           1.07000000
   B154           1.07000000
   B155           1.07000000
   B156           1.07000000
   B157           1.07000000
   B158           1.00000000
   B159           1.07000000
   B160           1.07000000
   B161           1.07000000
   B162           1.07000000
   B163           1.07000000
   B164           1.07000000
   B165           1.07000000
   B166           1.07000000
   B167           1.07000000
   B168           1.07000000
   B169           1.07000000
   B170           1.07000000
   B171           1.07000000
   B172           1.07000000
   B173           1.07000000
   B174           0.96000000
   B175           0.96000000
   B176           0.96000000
   B177           1.43772390
   B178           1.07000000
   B179           1.54000000
   B180           1.07000000
   B181           1.07000000
   B182           1.43000000
   B183           0.96000000
   B184           1.00000000
   B185           1.00000000
   B186           1.00000000
   B187           1.00000000
   B188           1.00000000
   B189           1.00000000
   B190           0.96000000
   B191           0.96000000
   B192           0.96000000
   B193           0.96000000
   A1           106.86695349
   A2           127.08130745
   A3           113.72789716
   A4           104.40399987
   A5           132.38900375
   A6           123.58867929
   A7           117.91513512
   A8           118.44571810
   A9           129.11796431
   A10          111.00249685
   A11           73.37232559
   A12           69.76494172
   A13          113.03189043
   A14          120.51835452
   A15          107.72117562
   A16          111.21144010
   A17          102.01630677
   A18          119.97322849
   A19          109.39349817
   A20          111.52770990
   A21          108.50479623
   A22          106.73359888
   A23          121.25444953
   A24          123.59848612
   A25          122.95813120
   A26          118.01426722
   A27          125.21584676
   A28          115.17501567
   A29          127.83209095
   A30          122.04534942
   A31          115.32446328
   A32          105.17943127
   A33          107.88084758
   A34          120.33085065
   A35          105.23851632
   A36          111.19508976
   A37          102.68430710
   A38          120.12665956
   A39          109.74522248
   A40          112.62086024
   A41          107.98084416
   A42          106.78584498
   A43          119.91842237
   A44          123.46494167
   A45          122.57776702
   A46          117.93994374
   A47          125.02840286
   A48          115.45843541
   A49          126.88175514
   A50          122.58560870
   A51          115.65069223
   A52          104.96165407
   A53          106.53622539
   A54          113.62212949
   A55          100.33753479
   A56          109.44270271
   A57          108.82876534
   A58          111.61119218
   A59          106.10053692
   A60          126.74355442
   A61          113.78519571
   A62          103.85778637
   A63          132.19026121
   A64          123.16366165