%nprocshared=4
%mem=6GB
%chk=benzene-mp2-2
#opt mp2(full)/6-311+g** geom=check

title

0 1

